NAME : XML100_1226_17
DIMENSION : 101
NB_CLUSTERS : 4
CLUSTERING_ALG : KMeans
CLUSTERING_PARAMS : k(3)
CLUSTERS
1 0
2 2 6 10 13 14 15 19 21 24 26 28 29 35 38 44 45 46 47 49 53 62 68 69 70 80 81 84 85 86 87 90 92
3 1 7 11 12 16 20 32 39 51 54 57 58 59 60 67 76 88 91 93 95 96 97
4 3 4 5 8 9 17 18 22 23 25 27 30 31 33 34 36 37 40 41 42 43 48 50 52 55 56 61 63 64 65 66 71 72 73 74 75 77 78 79 82 83 89 94 98 99 100
EOF